param set_len = 18;
param target := 643249717;
param values := [1] 16016161 [2] 80854890 [3] 49287959 [4] 129335283 [5] 36148869 [6] 26618120 [7] 24346588 [8] 75328762 [9] 91698798 [10] 101554599 [11] 123530748 [12] 90773997 [13] 12465080 [14] 88188487 [15] 2352327 [16] 2373993 [17] 123279563 [18] 79414974 ;
